; benchmark generated from python API
(set-info :status unknown)
(declare-datatypes ((RealState 0)) (((RMk1 (rval1 Real)) (RMk2 (rval2 Real)))))
 (assert
 (forall ((|v11:0| Real) )(forall ((|v10:1| Real) )(forall ((|v9:2| Real) )(forall ((|v8:3| Real) )(exists ((|v7:4_st| RealState) (val!4292 Real) )(exists ((|v6:5_st| RealState) (val!4293 Real) )(exists ((|v5:6_st| RealState) (val!4294 Real) )(exists ((|v4:7_st| RealState) (val!4295 Real) )(forall ((|v3:8| Real) )(forall ((|v2:9| Real) )(forall ((|v1:10| Real) )(forall ((|v0:11| Real) )(let ((?x2583 (- 5.0)))
 (let ((?x2375 (+ (+ (* (- 3.0) (rval2 |v6:5_st|)) (* 0.0 |v0:11|)) (* (- 17.0) (rval2 |v7:4_st|)))))
 (let (($x3027 (not (= |v4:7_st| (RMk1 val!4295)))))
 (let (($x820 (not (= |v5:6_st| (RMk1 val!4294)))))
 (and (not (= |v7:4_st| (RMk1 val!4292))) (not (= |v6:5_st| (RMk1 val!4293))) $x820 $x3027 (<= (+ ?x2375 (* 11.0 (rval2 |v4:7_st|))) ?x2583)))))))
 )
 )
 )
 )
 )
 )
 )
 )
 )
 )
 )
 )
(check-sat)
